Welcome to the CBC MILP Solver
Version: Devel (unstable)
Build Date: Mar 30 2022
command line - -import /home/danilo/cbc-test-set/fhnw-schedule-pairb400.mps.gz -timeM elapsed -seconds 10800 -knapsack off -solve -solu sol-group-root/fhnw-schedule-pairb400.txt -quit (default strategy 1)
At line 1 NAME fhnw-schedule-pairb400
At line 2 ROWS
At line 399100 COLUMNS
At line 1596601 RHS
At line 1836002 BOUNDS
At line 1996707 ENDATA
Problem fhnw-schedule-pairb400 has 399096 rows, 160400 columns and 1197096 elements
Coin0008I fhnw-schedule-pairb400 read with 0 errors
seconds was changed from 1e+08 to 10800
Continuous objective value is -146.941 - 109.849 seconds
Cgl0002I 33840 variables fixed
Cgl0003I 3782 fixed, 0 tightened bounds, 55 strengthened rows, 0 substitutions
Cgl0003I 0 fixed, 0 tightened bounds, 5707 strengthened rows, 0 substitutions
Cgl0003I 0 fixed, 0 tightened bounds, 24523 strengthened rows, 0 substitutions
Cgl0003I 0 fixed, 0 tightened bounds, 16974 strengthened rows, 0 substitutions
Cgl0003I 0 fixed, 0 tightened bounds, 21264 strengthened rows, 0 substitutions
Cgl0003I 0 fixed, 0 tightened bounds, 15191 strengthened rows, 0 substitutions
Cgl0003I 0 fixed, 0 tightened bounds, 10376 strengthened rows, 0 substitutions
Cgl0003I 0 fixed, 0 tightened bounds, 8969 strengthened rows, 0 substitutions
Cgl0003I 0 fixed, 0 tightened bounds, 7405 strengthened rows, 0 substitutions
Cgl0003I 0 fixed, 0 tightened bounds, 6879 strengthened rows, 0 substitutions
Cgl0004I processed model has 212036 rows, 82085 columns (81781 integer (81781 of which binary)) and 737702 elements
Coin3009W Conflict graph built in 0.115 seconds, density: 0.001%
Cgl0015I Clique Strengthening extended 1882 cliques, 4338 were dominated
After applying Clique Strengthening continuous objective value is -111.024
Cbc0038I Initial state - 19943 integers unsatisfied sum - 3062.42
Cbc0038I Pass   1: (8850.66 seconds) suminf. 1161.03618 (34277) obj. -109.902 iterations 201058
Cbc0038I Pass   2: (8865.72 seconds) suminf. 1159.05868 (34256) obj. -109.904 iterations 710
Cbc0038I Pass   3: (8883.20 seconds) suminf. 1158.06913 (34253) obj. -109.908 iterations 620
Cbc0038I Pass   4: (8930.70 seconds) suminf. 1148.07178 (34274) obj. -109.924 iterations 1151
Cbc0038I Pass   5: (8983.63 seconds) suminf. 1137.48639 (34274) obj. -109.933 iterations 1513
Cbc0038I Pass   6: (9026.89 seconds) suminf. 1132.77268 (34273) obj. -109.936 iterations 1203
Cbc0038I Pass   7: (9076.35 seconds) suminf. 1126.70915 (34299) obj. -109.95 iterations 1538
Cbc0038I Pass   8: (9123.48 seconds) suminf. 1120.50003 (34288) obj. -109.957 iterations 1510
Cbc0038I Pass   9: (9164.73 seconds) suminf. 1117.27570 (34294) obj. -109.958 iterations 1132
Cbc0038I Pass  10: (9208.48 seconds) suminf. 1110.76808 (34289) obj. -109.961 iterations 1547
Cbc0038I Pass  11: (9252.79 seconds) suminf. 1105.90327 (34284) obj. -109.973 iterations 1454
Cbc0038I Pass  12: (9303.60 seconds) suminf. 1100.73649 (34285) obj. -109.976 iterations 1451
Cbc0038I Pass  13: (9405.34 seconds) suminf. 1091.63308 (34278) obj. -109.991 iterations 2938
Cbc0038I Pass  14: (9515.95 seconds) suminf. 1084.86223 (34290) obj. -110.01 iterations 2379
Cbc0038I Pass  15: (9583.63 seconds) suminf. 1079.46214 (34282) obj. -110.013 iterations 1455
Cbc0038I Pass  16: (9645.48 seconds) suminf. 1071.67333 (34283) obj. -110.014 iterations 1380
Cbc0038I Pass  17: (9753.86 seconds) suminf. 1064.08867 (34197) obj. -110.008 iterations 1871
Cbc0038I Pass  18: (9820.18 seconds) suminf. 1058.60999 (34187) obj. -110.007 iterations 1139
Cbc0038I Pass  19: (9910.32 seconds) suminf. 1052.99571 (34204) obj. -110.017 iterations 1863
Cbc0038I Pass  20: (9981.53 seconds) suminf. 1048.30040 (34188) obj. -110.013 iterations 1246
Cbc0038I Pass  21: (10032.33 seconds) suminf. 1043.82747 (34171) obj. -110.018 iterations 995
Cbc0038I Pass  22: (10103.63 seconds) suminf. 1040.18121 (34222) obj. -110.023 iterations 1171
Cbc0038I Pass  23: (10205.76 seconds) suminf. 1034.45071 (34220) obj. -110.031 iterations 1875
Cbc0038I Pass  24: (10246.08 seconds) suminf. 1031.28954 (34222) obj. -110.031 iterations 750
Cbc0038I Pass  25: (10292.60 seconds) suminf. 1028.91202 (34221) obj. -110.036 iterations 901
Cbc0038I Pass  26: (10327.41 seconds) suminf. 1025.60418 (34245) obj. -110.042 iterations 886
Cbc0038I Pass  27: (10394.01 seconds) suminf. 1022.87561 (34220) obj. -110.044 iterations 1249
Cbc0038I Pass  28: (10439.16 seconds) suminf. 1019.34542 (34238) obj. -110.051 iterations 866
Cbc0038I Pass  29: (10452.39 seconds) suminf. 1016.43256 (34240) obj. -110.057 iterations 526
Cbc0038I Pass  30: (10485.12 seconds) suminf. 1004.95978 (34256) obj. -110.081 iterations 1421
Cbc0038I No solution found this major pass
Cbc0038I Before mini branch and bound, 39123 integers at bound fixed and 73 continuous
Cbc0038I Full problem 209580 rows 82085 columns, reduced to 128685 rows 41871 columns - too large
Cbc0038I Mini branch and bound did not improve solution (10601.75 seconds)
Cbc0038I After 12696.36 seconds - Feasibility pump exiting - took 9152.15 seconds
Cbc0020I Exiting on maximum time
Cbc0005I Partial search - best objective 1e+50 (best possible -111.02417), took 0 iterations and 0 nodes (12697.20 seconds)
Cbc0035I Maximum depth 0, 0 variables fixed on reduced cost
Cuts at root node changed objective from -111.024 to -111.024
Probing was tried 0 times and created 0 cuts of which 0 were active after adding rounds of cuts (0 seconds)
Gomory was tried 0 times and created 0 cuts of which 0 were active after adding rounds of cuts (0 seconds)
liftKnapsack was tried 0 times and created 0 cuts of which 0 were active after adding rounds of cuts (0 seconds)
Clique was tried 0 times and created 0 cuts of which 0 were active after adding rounds of cuts (0 seconds)
OddWheel was tried 0 times and created 0 cuts of which 0 were active after adding rounds of cuts (0 seconds)
MixedIntegerRounding2 was tried 0 times and created 0 cuts of which 0 were active after adding rounds of cuts (0 seconds)
FlowCover was tried 0 times and created 0 cuts of which 0 were active after adding rounds of cuts (0 seconds)
TwoMirCuts was tried 0 times and created 0 cuts of which 0 were active after adding rounds of cuts (0 seconds)
ZeroHalf was tried 0 times and created 0 cuts of which 0 were active after adding rounds of cuts (0 seconds)

Result - Stopped on time limit
No feasible solution found
Lower bound:                    -111.024
Enumerated nodes:               0
Total iterations:               0
Time (CPU seconds):             12545.4
Time (Wallclock seconds):       12697.2
Total time (CPU seconds):       12547.8   (Wallclock seconds):       12699.7
